p cnf 888 2267
c ind 880 883 802 867 868 818 869 885 814 815 0
c ind 835 849 836 854 881 823 886 862 878 879 0
c ind 808 882 803 807 852 805 865 804 817 850 0
c ind 851 866 806 855 864 853 861 884 856 871 0
c ind 872 863 846 847 873 876 843 875 839 842 0
c ind 870 858 848 840 877 844 831 841 860 822 0
c ind 874 845 830 826 824 857 859 813 829 819 0
c ind 809 837 816 834 811 821 833 825 832 812 0
c ind 827 810 828 820 838 1 0
c ret 530 662 663 664 665 666 667 668 531 669 0
c ret 670 671 672 673 674 675 676 574 677 575 0
c ret 678 679 532 680 681 682 576 683 684 685 0
c ret 686 533 687 688 689 690 691 692 693 694 0
c ret 577 695 578 696 697 698 534 699 700 701 0
c ret 702 703 704 705 706 707 708 535 536 579 0
c ret 537 709 710 711 712 713 714 715 716 580 0
c ret 717 718 719 720 721 538 581 722 723 724 0
c ret 582 725 726 727 539 728 729 730 731 732 0
c ret 522 540 733 734 735 736 541 737 738 739 0
c ret 740 583 584 741 742 542 585 743 744 745 0
c ret 746 747 748 749 543 750 751 752 544 753 0
c ret 754 755 756 757 586 758 759 760 761 762 0
c ret 763 764 765 545 766 767 768 769 587 770 0
c ret 771 772 773 774 775 776 777 778 588 546 0
c ret 779 780 781 782 783 784 785 786 547 787 0
c ret 788 589 789 590 790 791 792 793 794 795 0
c ret 796 523 548 797 798 799 800 801 549 591 0
c ret 592 593 594 550 595 596 597 598 551 552 0
c ret 599 600 553 601 602 603 554 604 605 524 0
c ret 555 606 607 608 609 610 611 612 613 556 0
c ret 614 557 558 559 615 560 525 616 617 561 0
c ret 562 618 563 619 564 565 620 621 622 566 0
c ret 526 567 623 624 625 626 627 628 629 630 0
c ret 631 527 632 633 634 635 636 637 638 639 0
c ret 640 641 642 643 528 568 644 569 645 646 0
c ret 647 570 571 648 649 650 651 529 652 653 0
c ret 654 655 656 572 657 573 658 659 660 661 0
2 -61 -200 0
2 -3 -188 -200 0
-2 200 0
-2 61 188 0
-2 3 61 0
3 -4 -59 60 683 0
-3 -683 0
-3 -60 0
-3 59 0
-3 4 0
4 -5 -7 0
4 -7 -684 0
-4 7 0
-4 5 684 0
5 -6 534 536 0
-5 6 0
-5 -536 0
-5 -534 0
6 538 553 0
-6 -538 0
-6 -553 0
7 8 29 -38 0
-7 38 0
-7 -29 0
-7 -8 0
8 9 10 0
8 10 -534 0
8 10 -536 0
-8 -10 0
-8 -9 534 536 0
9 538 557 0
-9 -538 0
-9 -557 0
10 -24 -534 0
10 11 534 0
-10 -11 534 0
-10 24 -534 0
11 -22 -536 0
11 12 536 0
-11 -12 536 0
-11 22 -536 0
12 -15 -538 0
12 13 538 0
-12 -13 538 0
-12 15 -538 0
13 -556 -577 0
13 -14 -577 0
-13 577 0
-13 14 556 0
14 -549 -550 -578 0
-14 549 0
-14 550 0
-14 578 0
13 15 16 0
15 -16 606 0
-13 -15 16 0
-15 -16 -606 0
16 17 557 0
-16 -557 0
-16 -17 0
17 18 -607 0
-17 607 0
-17 -18 0
18 19 610 0
18 19 611 0
-18 -19 0
-18 -610 -611 0
19 20 -21 557 607 0
-19 21 0
-19 -20 0
-19 -557 0
-19 -607 0
20 558 567 -614 0
-20 614 0
-20 -567 0
-20 -558 0
21 -608 610 611 0
-21 608 0
-21 -611 0
-21 -610 0
22 -23 -631 0
12 22 23 0
-12 -22 23 0
-22 -23 631 0
-9 17 23 0
9 -23 0
-17 -23 0
11 24 25 0
24 -25 657 0
-11 -24 25 0
-24 -25 -657 0
25 -26 -28 0
25 -26 -27 607 0
-25 26 0
-25 28 -607 0
-25 27 28 0
-9 26 536 0
-26 -536 0
9 -26 0
27 536 538 0
-27 -536 0
-27 -538 0
-18 28 607 0
-18 28 557 0
18 -28 0
-28 -557 -607 0
29 -30 -31 0
29 -31 32 -548 0
-29 31 0
-29 30 -32 0
-29 30 548 0
30 -583 584 -585 0
-30 583 0
-30 -584 0
-30 585 0
31 534 536 538 0
-31 -534 0
-31 -538 0
-31 -536 0
32 -534 -662 0
32 33 534 0
-32 -534 662 0
-32 -33 534 0
33 -536 639 0
33 -34 536 0
-33 -536 -639 0
-33 34 536 0
34 -538 615 0
34 -35 538 0
-34 -538 -615 0
-34 35 538 0
35 36 37 0
35 36 -570 -571 0
-35 -36 0
-35 -37 570 0
-35 -37 571 0
36 -546 -568 0
36 -546 -569 0
-36 546 0
-36 568 569 0
37 547 -568 -569 0
-37 569 0
-37 568 0
-37 -547 0
38 -39 55 0
38 53 55 0
-38 -55 0
-38 39 -53 0
39 -40 -47 0
39 -47 665 0
-39 47 0
-39 40 -665 0
40 -534 665 0
40 -41 534 0
-40 -534 -665 0
-40 41 534 0
41 -536 642 0
41 -42 536 0
-41 -536 -642 0
-41 42 536 0
42 43 538 0
42 43 617 0
-42 -43 0
-42 -538 -617 0
43 44 538 0
-43 -538 0
-43 -44 0
44 -46 564 0
44 -46 -575 0
44 45 -46 0
-44 46 0
-44 -45 -564 575 0
45 594 596 597 -598 0
-45 598 0
-45 -597 0
-45 -594 0
-45 -596 0
46 596 597 0
46 575 594 0
46 594 597 0
46 575 596 0
-46 -594 -596 0
-46 -575 -597 0
47 -52 672 0
47 -48 534 672 0
-47 -672 0
-47 52 -534 0
-47 48 52 0
48 -49 536 0
48 -51 -536 0
-48 51 -536 0
-48 49 536 0
49 -50 538 0
-49 -538 0
-49 50 0
50 -575 594 0
50 575 593 0
-50 575 -593 0
-50 -575 -594 0
51 617 641 0
-51 -617 0
-51 -641 0
52 642 664 0
-52 -642 0
-52 -664 0
53 -54 673 0
53 665 673 0
-53 -673 0
-53 54 -665 0
-48 54 534 0
-52 54 -534 0
52 -54 -534 0
48 -54 534 0
55 57 674 0
55 56 58 674 0
-55 -674 0
-55 -56 -57 0
-55 -57 -58 0
56 574 575 0
56 562 -575 0
-56 -574 575 0
-56 -562 -575 0
-56 57 -665 0
57 665 676 0
-57 665 -676 0
56 -57 -665 0
-52 58 675 0
-58 -675 0
52 -58 0
-5 -7 59 0
-7 59 -677 0
7 -59 0
5 -59 677 0
60 -677 684 0
-60 677 0
-60 -684 0
61 -176 528 0
61 62 528 705 0
-61 -528 0
-61 176 -705 0
-61 -62 176 0
62 139 -706 0
62 63 107 139 0
-62 -139 0
-62 -63 706 0
-62 -107 706 0
63 -106 707 708 0
63 -64 707 -708 0
-63 -707 0
-63 64 -708 0
-63 106 708 0
64 -65 -537 619 623 0
64 -65 537 -619 623 0
-64 65 0
-64 537 619 0
-64 -623 0
-64 -537 -619 0
65 -66 74 -75 -97 0
-65 97 0
-65 66 0
-65 75 0
-65 -74 0
66 67 -72 -538 0
66 67 -68 -72 0
-66 72 0
-66 -67 0
-66 68 538 0
9 12 67 0
-9 -67 0
-12 -67 0
68 -69 -70 0
68 -69 71 0
-68 69 0
-68 70 -71 0
30 35 69 0
30 69 548 0
-30 -69 0
-35 -69 -548 0
-44 70 592 0
-70 -592 0
44 -70 0
-50 71 599 0
-71 -599 0
50 -71 0
72 73 -620 0
-6 72 73 0
-72 -73 0
6 -72 620 0
56 73 600 0
-73 -600 0
-56 -73 0
15 74 -538 0
74 -538 -553 603 0
-74 538 0
-15 -74 553 0
-15 -74 -603 0
-69 75 -76 88 -89 0
-75 89 0
69 -75 0
-75 76 0
-75 -88 0
76 -77 86 553 0
76 -77 -84 86 0
-76 77 0
-76 -86 0
-76 84 -553 0
77 -79 -81 -556 0
77 78 -79 -81 0
-77 81 0
-77 79 0
-77 -78 556 0
78 549 -557 0
-78 -549 0
-78 557 0
79 80 547 0
79 80 -546 0
79 80 548 0
-79 -80 0
-79 546 -547 -548 0
80 549 558 0
80 -549 550 0
-80 -549 -550 0
-80 549 -558 0
81 -82 83 -560 0
78 81 -82 83 0
-81 82 0
-81 -83 0
-78 -81 560 0
82 -539 -566 -586 587 0
-82 586 0
-82 -587 0
-82 539 0
-82 566 0
83 -553 588 0
83 -579 588 0
-83 -588 0
-83 553 579 0
84 85 -552 -572 0
84 85 551 -572 0
-84 572 0
-84 -85 0
-84 -551 552 0
85 554 -555 0
85 554 573 0
-85 -554 0
-85 555 -573 0
86 -87 -541 0
86 -541 543 -545 0
-86 541 0
-86 87 -543 0
-86 87 545 0
87 -540 542 -543 544 0
-87 543 0
-87 -544 0
-87 540 0
-87 -542 0
-13 88 -557 0
-88 557 0
13 -88 0
-56 89 -91 -94 0
89 90 -91 -94 0
-89 94 0
-89 91 0
56 -89 -90 0
90 561 -576 0
-90 -561 0
-90 576 0
91 92 93 553 0
91 92 93 -579 0
-91 -93 0
-91 -92 0
-91 -553 579 0
92 558 567 0
-92 -558 0
-92 -567 0
93 564 -565 0
-93 -564 0
-93 565 0
94 95 96 0
94 95 549 0
94 95 556 0
-94 -95 0
-94 -96 -549 -556 0
95 561 -566 0
95 561 -562 -563 0
-95 -561 0
-95 562 566 0
-95 563 566 0
96 -557 -558 559 0
-96 557 0
-96 558 0
-96 -559 0
97 -98 -102 564 0
97 -98 101 -102 0
-97 102 0
-97 98 0
-97 -101 -564 0
-68 98 -600 0
-68 98 -99 566 0
68 -98 0
-98 -566 600 0
-98 99 600 0
99 -100 601 0
-99 -601 0
-99 100 0
100 595 596 0
100 -575 596 0
100 563 575 -596 0
-100 -563 -596 0
-100 -575 -596 0
-100 575 -595 596 0
-50 -70 101 0
-70 -100 101 0
70 -101 0
50 100 -101 0
71 88 102 -103 0
88 102 -103 564 0
-102 103 0
-88 -102 0
-71 -102 -564 0
56 103 104 -105 -600 0
-103 105 0
-103 -104 0
-103 600 0
-56 -103 0
104 -553 603 0
104 -603 620 0
104 -538 620 0
-104 553 -620 0
-104 -603 -620 0
-104 538 553 603 0
105 -591 -618 619 0
-105 591 0
-105 618 0
-105 -619 0
-75 106 591 0
-106 -591 0
75 -106 0
107 -108 648 -707 0
-107 108 0
-107 707 0
-107 -648 0
-65 108 -109 119 -132 0
-108 132 0
65 -108 0
-108 109 0
-108 -119 0
109 110 111 112 -116 0
-109 116 0
-109 -112 0
-109 -110 0
-109 -111 0
-11 110 -536 0
9 -11 110 0
11 -110 0
-9 -110 536 0
-27 -30 111 0
-27 -33 111 -548 0
27 -111 0
30 33 -111 0
30 -111 548 0
112 -113 536 0
-112 -536 0
-112 113 0
113 114 -115 0
-113 -114 0
-113 115 0
-49 114 617 624 0
43 -49 114 624 0
49 -114 0
-114 -624 0
-43 -114 -617 0
-49 115 625 0
115 617 625 0
-115 -625 0
49 -115 -617 0
116 -117 -645 0
116 -117 -118 0
-116 117 0
-116 118 645 0
117 -626 0
-56 117 -617 0
-56 117 627 0
56 -117 626 0
-117 617 626 -627 0
-6 118 536 0
-118 -536 0
6 -118 0
-22 119 -120 0
119 126 -536 0
-22 119 -536 0
119 -120 126 0
22 -119 -126 0
-119 120 536 0
120 121 125 0
-12 120 121 -124 0
-120 -121 0
12 -120 -125 0
-120 124 -125 0
121 538 632 638 0
121 122 -538 632 -638 0
-121 -538 638 0
-121 -122 -638 0
-121 -632 0
-121 538 -638 0
122 -123 -538 -635 0
122 -123 538 -636 0
-122 123 0
-122 -538 635 0
-122 538 636 0
123 585 -633 0
123 -633 -634 0
-123 633 0
-123 -585 634 0
-34 -114 124 637 0
-34 124 626 637 0
34 -124 0
-124 -637 0
114 -124 -626 0
-122 125 -538 -632 0
-125 538 0
-125 632 0
122 -125 0
-117 126 -127 -129 -131 0
-126 131 0
117 -126 0
-126 129 0
-126 127 0
113 127 -626 0
113 127 -128 0
-113 -127 0
-127 128 626 0
-56 128 -617 0
128 617 627 0
-128 617 -627 0
56 -128 -617 0
129 130 -538 0
-69 129 130 0
-129 -130 0
69 -129 538 0
6 130 628 0
-130 -628 0
-6 -130 0
30 130 131 -536 538 0
-130 -131 0
-30 -131 0
-131 536 0
-131 -538 0
-66 111 -127 132 -133 0
-132 133 0
66 -132 0
127 -132 0
-111 -132 0
-71 -129 133 -134 0
114 -129 133 -134 0
-133 134 0
129 -133 0
71 -114 -133 0
128 130 134 -135 -137 0
-128 -134 0
-134 137 0
-134 135 0
-130 -134 0
135 -136 -645 0
135 -136 536 628 0
-135 136 0
-135 -628 645 0
-135 -536 645 0
136 537 -619 0
136 -537 619 0
-136 -537 -619 0
-136 537 619 0
-56 137 -138 0
137 -138 -626 0
-137 138 0
56 -137 626 0
138 -535 -623 -643 644 0
-138 643 0
-138 -644 0
-138 535 0
-138 623 0
139 -140 -165 671 -706 0
-139 -671 0
-139 165 0
-139 140 0
-139 706 0
140 -150 -161 0
140 141 -161 534 0
-140 161 0
-140 -141 150 0
-140 150 -534 0
141 142 149 0
11 141 142 -146 0
-141 -142 0
-11 -141 -149 0
-141 146 -149 0
-27 142 658 661 0
27 142 143 658 -661 0
-27 -142 -661 0
27 -142 -143 0
-142 -658 0
27 -142 661 0
-123 143 -144 0
123 -143 0
-143 144 0
144 -536 -659 0
144 -145 536 0
-144 145 536 0
-144 -536 659 0
145 -538 -635 0
145 538 -636 0
-145 538 636 0
-145 -538 635 0
-33 146 -147 660 0
-33 146 651 660 0
33 -146 0
-146 -660 0
-146 147 -651 0
147 148 642 649 0
-41 147 148 649 0
-147 -148 0
-147 -649 0
41 -147 -642 0
48 51 148 0
-51 -148 0
-48 -148 0
27 -143 149 -658 0
-149 658 0
-27 -149 0
143 -149 0
-24 150 -151 -157 -158 0
-150 158 0
24 -150 0
-150 157 0
-150 151 0
151 -152 156 0
-151 152 0
-151 -156 0
152 153 155 0
-147 152 153 0
-152 -153 0
147 -152 -155 0
153 154 651 0
-153 -651 0
-153 -154 0
-56 154 -642 0
154 642 653 0
-154 642 -653 0
56 -154 -642 0
-48 155 650 0
155 642 650 0
-155 -650 0
48 -155 -642 0
118 156 654 0
-156 -654 0
-118 -156 0
111 156 157 0
-111 -157 0
-156 -157 0
-27 30 158 -159 -534 0
-158 159 0
-158 534 0
27 -158 0
-30 -158 0
159 -651 0
-56 -154 159 0
-154 159 -160 0
154 -159 651 0
56 -159 160 651 0
-51 160 652 0
-160 -652 0
51 -160 0
8 29 -108 161 -162 0
-161 162 0
-29 -161 0
108 -161 0
-8 -161 0
162 -163 -668 0
-5 162 -163 0
-162 163 0
5 -162 668 0
-147 -159 163 0
-159 163 164 0
159 -163 0
147 -163 -164 0
-155 164 534 0
-164 -534 0
155 -164 0
8 -109 165 -166 0
109 -165 0
-8 -165 0
-165 166 0
29 110 -151 166 -167 0
151 -166 0
-29 -166 0
-110 -166 0
-166 167 0
-152 -157 -163 167 -168 0
-167 168 0
152 -167 0
163 -167 0
157 -167 0
168 169 -171 -651 0
-128 168 169 -171 0
-168 171 0
-168 -169 0
128 -168 651 0
-147 169 170 0
147 -169 0
-169 -170 0
-115 170 536 0
-170 -536 0
115 -170 0
156 171 172 -173 0
171 172 -173 -534 0
-171 173 0
-171 -172 0
-156 -171 534 0
56 160 172 651 0
-172 -651 0
-160 -172 0
-56 -172 0
154 173 -175 -668 0
154 173 -174 -175 0
-173 175 0
-154 -173 0
-173 174 668 0
174 534 654 0
-174 -534 0
-174 -654 0
175 -533 -648 -666 667 0
-175 666 0
-175 -667 0
-175 533 0
-175 648 0
-3 176 -177 687 -705 0
-176 -687 0
-176 177 0
3 -176 0
-176 705 0
-59 177 178 -179 0
-59 177 -179 -186 0
59 -177 0
-177 179 0
-177 -178 186 0
-123 -144 178 534 0
-123 178 -534 -680 0
123 -178 0
-178 -534 680 0
144 -178 534 0
-38 -140 -165 179 -180 0
-179 180 0
140 -179 0
38 -179 0
165 -179 0
39 180 181 -182 0
-164 180 181 -182 0
-180 182 0
-180 -181 0
-39 164 -180 0
178 181 -532 0
-181 532 0
-178 -181 0
57 182 -183 -674 0
57 -154 182 -183 0
-182 183 0
-57 -182 0
154 -182 674 0
183 184 -185 -531 683 0
183 184 -185 531 -683 0
-183 185 0
-183 531 683 0
-183 -184 0
-183 -531 -683 0
-27 184 534 0
-184 -534 0
27 -184 0
185 -671 -677 -682 0
-185 671 0
-185 677 0
-185 682 0
186 187 -532 0
10 186 -532 0
-186 532 0
-10 -186 -187 0
32 -39 187 681 0
32 187 674 681 0
-32 -187 0
-187 -681 0
39 -187 -674 0
-4 -177 188 189 -193 0
-188 193 0
4 -188 0
177 -188 0
-188 -189 0
-178 189 530 0
-10 -178 189 -190 0
178 -189 0
-189 190 -530 0
10 -189 -530 0
32 190 -191 698 0
32 190 692 698 0
-32 -190 0
-190 -698 0
-190 191 -692 0
191 192 688 690 0
-40 191 192 688 0
-191 -688 0
-191 -192 0
40 -191 -690 0
54 192 -665 0
54 192 -689 0
-54 -192 0
-192 665 689 0
191 193 -194 199 0
-53 -191 193 -194 0
-193 194 0
53 -191 -193 0
191 -193 -199 0
29 194 -195 530 0
29 -178 194 -195 0
-194 195 0
-29 -194 0
178 -194 -530 0
31 195 -196 -197 -198 0
-31 -195 0
-195 198 0
-195 197 0
-195 196 0
196 -528 690 -694 0
56 196 -528 -690 0
-196 528 0
-56 -196 -690 0
-196 690 694 0
197 -699 700 -701 704 0
-197 701 0
-197 -704 0
-197 699 0
-197 -700 0
198 -529 -687 -692 -695 0
-198 695 0
-198 529 0
-198 692 0
-198 687 0
-54 199 691 0
199 690 691 0
-199 -691 0
54 -199 -690 0
200 201 267 -382 -519 0
-200 -201 0
-200 519 0
-200 382 0
-200 -267 0
201 202 266 0
201 202 213 -234 0
-201 -202 0
-201 -213 -266 0
-201 234 -266 0
202 -203 523 777 0
202 203 209 523 -777 0
-202 -203 -777 0
-202 203 -209 0
-202 -523 0
-202 203 777 0
203 -204 525 0
-203 -525 0
-203 204 0
204 205 527 0
-204 -527 0
-204 -205 0
184 205 207 0
205 -207 -208 0
205 -206 -207 0
-184 -205 207 0
-205 206 -207 208 0
27 206 -707 0
-206 707 0
-27 -206 0
207 528 705 706 0
-207 -528 0
-207 -706 0
-207 -705 0
208 -538 -708 0
-208 538 0
-208 708 0
209 -210 -211 0
-209 210 0
-209 211 0
210 -634 -713 0
210 -713 716 0
-210 713 0
-210 634 -716 0
211 -525 -775 0
211 -212 525 0
-211 212 525 0
-211 -525 775 0
212 527 -729 0
212 -527 -754 0
-212 -527 754 0
-212 527 729 0
213 214 215 0
-213 -214 0
-213 -215 0
214 717 718 731 0
-214 -717 0
-214 -731 0
-214 -718 0
215 -216 525 0
215 -228 -525 0
-215 228 -525 0
-215 216 525 0
216 -217 -527 0
216 527 722 0
-216 527 -722 0
-216 217 -527 0
217 218 722 0
217 -218 725 0
-217 -218 -725 0
-217 218 -722 0
218 -219 -224 0
218 -224 726 0
-218 224 0
-218 219 -726 0
207 219 -220 0
-207 219 -222 0
-207 219 -221 0
207 -219 220 0
-207 -219 221 222 0
27 -28 220 0
-27 220 534 607 0
-28 220 -534 0
27 28 -220 0
28 -220 -534 0
-27 -220 534 -607 0
208 221 607 707 0
-28 -208 221 707 0
-221 -707 0
208 -221 -607 0
28 -208 -221 0
222 -223 -707 0
-222 707 0
-222 223 0
-27 223 607 0
27 -28 223 0
-27 -223 -607 0
27 28 -223 0
224 225 -226 0
224 724 727 0
224 -226 724 0
224 225 727 0
-224 -225 -724 0
-224 226 -727 0
205 225 -609 0
-225 609 0
-205 -225 0
-31 226 557 0
226 -227 557 0
-226 -557 0
31 -226 227 0
-27 -207 208 227 0
-207 208 227 707 0
207 -227 0
-208 -227 0
27 -227 -707 0
-216 228 229 0
228 -229 752 0
-228 -229 -752 0
216 -228 229 0
229 -230 -231 0
229 -231 726 0
-229 231 0
-229 230 -726 0
-219 230 527 0
-230 -527 0
219 -230 0
231 724 727 0
231 -232 -233 0
231 -233 724 0
231 -232 727 0
-231 232 -724 0
-231 233 -727 0
232 -527 724 0
-205 232 527 0
232 527 609 0
-232 -527 -724 0
205 -232 527 -609 0
233 -527 727 0
-226 233 527 0
-233 -527 -727 0
226 -233 527 0
234 259 769 776 0
234 -235 259 776 0
-234 -259 0
-234 -776 0
-234 235 -769 0
235 245 760 767 0
235 -236 245 767 0
-235 -245 0
-235 -767 0
-235 236 -760 0
236 -240 525 0
236 -525 760 0
236 -237 525 0
-236 -525 -760 0
-236 237 240 525 0
-40 237 238 527 0
-207 237 238 527 0
-237 -527 0
-237 -238 0
40 207 -237 0
41 -207 238 -707 0
-207 238 -239 707 0
207 -238 0
-238 239 707 0
-41 -238 -707 0
-208 239 -617 0
44 208 239 0
-44 208 -239 0
-208 -239 617 0
240 241 -527 0
-240 527 0
-240 -241 0
241 -528 -736 0
241 -244 528 0
241 -242 528 0
-241 -528 736 0
-241 242 244 528 0
242 -665 705 -706 0
242 243 705 706 0
-242 -705 0
-242 -243 706 0
-242 665 -706 0
243 642 -707 0
243 617 707 -708 0
-243 -642 -707 0
-243 -617 707 0
-243 707 708 0
244 -690 -705 0
-244 690 0
-244 705 0
245 246 247 0
-245 -246 0
-245 -247 0
241 246 759 0
-246 -759 0
-241 -246 0
247 -248 525 0
-247 -525 0
-247 248 0
248 252 -527 0
248 -249 252 0
-248 -252 0
-248 249 527 0
-54 249 250 527 0
-207 249 250 527 0
-249 -527 0
-249 -250 0
54 207 -249 0
48 -207 250 251 0
-207 250 251 707 0
207 -250 0
-250 -251 0
-48 -250 -707 0
-50 208 251 707 0
-251 -707 0
50 -251 0
-208 -251 0
249 252 -253 0
-252 253 0
-249 -252 0
253 254 -690 0
253 254 -735 0
253 254 528 0
-253 -254 0
-253 -528 690 735 0
254 -256 528 705 0
254 -255 528 -705 0
-254 -528 0
-254 255 -705 0
-254 256 705 0
255 665 689 0
-255 -665 0
-255 -689 0
-52 256 -706 0
256 -258 706 0
256 -257 706 0
52 -256 -706 0
-256 257 258 706 0
-100 257 707 708 0
100 -257 0
-257 -708 0
-257 -707 0
-51 258 -707 0
-258 707 0
51 -258 0
259 260 -757 0
259 260 525 0
-259 -260 0
-259 -525 757 0
260 261 525 0
-260 -525 0
-260 -261 0
261 262 -733 0
261 262 527 0
-261 -262 0
-261 -527 733 0
262 263 527 0
-262 -527 0
-262 -263 0
-207 263 -264 0
-32 207 263 0
-207 -263 264 0
32 207 -263 0
33 264 -707 0
264 -265 707 0
-33 -264 -707 0
-264 265 707 0
-208 265 -615 0
35 208 265 0
-35 208 -265 0
-208 -265 615 0
203 -209 266 -523 0
-266 523 0
-203 -266 0
209 -266 0
215 267 268 276 -290 0
-215 267 -268 276 -290 0
-267 -276 0
215 -267 -268 0
-267 290 0
-215 -267 268 0
268 269 271 0
268 -271 869 0
-268 -269 271 0
-268 -271 -869 0
269 -819 -840 0
269 -270 -840 -841 0
-269 840 0
-269 819 841 0
-269 270 819 0
270 -812 -813 0
-270 812 0
-270 813 0
271 820 870 0
271 -272 820 0
-271 -820 0
-271 272 -870 0
272 273 873 0
272 273 874 0
-272 -273 0
-272 -873 -874 0
273 274 -275 820 870 0
-273 275 0
-273 -274 0
-273 -820 0
-273 -870 0
274 821 830 -877 0
-274 877 0
-274 -830 0
-274 -821 0
275 -871 873 874 0
-275 871 0
-275 -874 0
-275 -873 0
276 277 -280 0
276 -277 280 0
-276 -277 -280 0
-276 277 280 0
277 278 784 786 0
-236 277 278 784 0
-277 -784 0
-277 -278 0
236 -277 -786 0
278 -279 -785 0
278 -279 -760 0
-278 279 0
-278 760 785 0
247 279 525 0
246 247 279 0
-247 -279 0
-246 -279 -525 0
280 -281 -288 -289 0
280 -282 -288 -289 0
-280 289 0
-280 288 0
-280 281 282 0
281 -838 857 0
281 838 856 0
-281 838 -856 0
-281 -838 -857 0
-281 282 284 -286 0
282 -283 284 -286 0
-282 286 0
-282 -284 0
281 -282 283 0
283 858 859 0
283 -838 859 0
283 826 838 -859 0
-283 -826 -859 0
-283 -838 -859 0
-283 838 -858 859 0
284 -285 -827 838 0
-284 827 0
-284 -838 0
-284 285 0
285 857 859 860 -861 0
-285 861 0
-285 -860 0
-285 -857 0
-285 -859 0
286 287 838 855 0
286 287 855 860 0
-286 -287 0
-286 -855 0
-286 -838 -860 0
287 -857 -859 0
-287 857 0
-287 859 0
-283 288 864 0
-288 -864 0
283 -288 0
281 289 884 0
289 883 884 0
-289 -884 0
-281 -289 -883 0
290 291 -292 -293 -381 0
290 -291 292 -293 -381 0
-290 381 0
-290 291 292 0
-290 293 0
-290 -291 -292 0
291 -525 -726 0
230 291 -726 0
230 291 525 527 0
-291 -525 726 0
-230 -291 525 0
-291 -527 726 0
-272 292 870 0
-272 292 820 0
272 -292 0
-292 -820 -870 0
-236 293 -294 884 0
236 293 -294 -884 0
-293 294 0
236 -293 884 0
-236 -293 -884 0
-279 294 -295 -786 0
-279 294 -295 -787 0
-294 295 0
279 -294 0
-294 786 787 0
295 -296 -311 -374 848 0
295 -296 -311 374 -848 0
-295 296 0
-295 -374 -848 0
-295 311 0
-295 374 848 0
-268 296 -297 -525 0
-232 -268 296 -297 0
-296 297 0
268 -296 0
232 -296 525 0
297 298 -299 306 310 0
-297 299 0
-297 -310 0
-297 -298 0
-297 -306 0
298 -527 727 0
-226 298 525 527 0
298 -525 727 0
-298 -525 -727 0
226 -298 525 527 0
-298 -527 -727 0
203 299 300 -302 0
203 299 -301 -302 0
-203 -299 0
-299 302 0
-299 -300 301 0
300 837 838 0
300 825 -838 0
-300 -837 838 0
-300 -825 -838 0
-56 301 -786 0
301 786 790 0
-301 786 -790 0
56 -301 -786 0
302 303 820 0
269 302 303 0
-302 -303 0
-269 -302 -820 0
303 304 809 -811 0
303 304 -811 831 0
-303 811 0
-303 -304 0
-303 -809 -831 0
304 -809 -832 0
304 -305 -832 0
-304 832 0
-304 305 809 0
305 810 -831 833 0
305 810 -831 834 0
-305 -810 0
-305 831 0
-305 -833 -834 0
306 -307 -308 0
-306 307 0
-306 308 0
307 525 527 0
-307 -525 0
-307 -527 0
-207 308 -309 0
-5 207 308 0
-207 -308 309 0
5 207 -308 0
-118 309 -707 0
208 309 553 707 0
118 -309 -707 0
-309 -553 707 0
-208 -309 707 0
300 -301 310 0
288 300 310 863 0
-300 -310 0
301 -310 -863 0
-288 301 -310 0
311 312 313 314 -315 0
311 -312 -313 314 -315 0
-311 -314 0
-311 312 -313 0
-311 315 0
-311 -312 313 0
-28 312 801 0
-312 -801 0
28 -312 0
313 885 886 0
313 874 -886 0
313 -874 886 0
-313 -874 -886 0
-313 874 -885 886 0
-203 314 570 0
-203 314 -796 0
-203 314 -548 0
203 -314 0
-314 548 -570 796 0
292 315 -316 373 -726 0
-292 315 -316 373 726 0
-315 -373 0
292 -315 726 0
-315 316 0
-292 -315 -726 0
316 -317 -333 -335 -355 0
-316 355 0
-316 317 0
-316 335 0
-316 333 0
317 -318 -326 827 0
282 317 -318 -326 0
-317 326 0
-317 318 0
-282 -317 -827 0
318 319 320 -322 0
318 320 -322 827 0
-318 322 0
-318 -320 0
-318 -319 -827 0
-281 319 862 0
-319 -862 0
281 -319 0
320 -321 -804 0
320 -804 806 -808 0
-320 804 0
-320 321 -806 0
-320 321 808 0
321 -803 805 -806 807 0
-321 806 0
-321 -807 0
-321 803 0
-321 -805 0
322 323 816 0
322 323 -324 -325 0
-322 -323 0
-322 325 -816 0
-322 324 -816 0
-56 300 323 0
300 323 824 -839 0
-300 -323 0
56 -323 -824 0
56 -323 839 0
324 -815 -835 0
324 814 -835 0
-324 835 0
-324 -814 815 0
325 -817 0
325 818 -836 0
-325 817 -818 0
-325 817 836 0
326 328 332 0
-205 326 332 0
326 -327 332 0
-326 -332 0
205 -326 327 -328 0
327 -569 -571 0
327 547 -569 -581 0
-327 569 0
-327 -547 571 0
-327 571 581 0
328 329 330 -331 0
328 -329 -331 547 0
-328 331 0
-328 329 -330 0
-328 -329 -547 0
329 -548 -582 0
-329 548 0
-329 582 0
330 -571 -581 0
-330 571 0
-330 581 0
-307 331 570 0
-331 -570 0
307 -331 0
-281 282 332 862 0
-332 -862 0
281 -332 0
-282 -332 0
211 -288 333 -334 881 0
-211 -288 333 -334 -881 0
211 288 333 334 881 0
-211 288 333 334 -881 0
-211 -333 881 0
211 -333 -881 0
288 -333 -334 0
-288 -333 334 0
334 760 785 789 0
-334 -760 0
-334 -789 0
-334 -785 0
335 -336 -347 -351 -353 0
-335 353 0
-335 336 0
-335 351 0
-335 347 0
336 -337 338 -339 -341 0
-336 341 0
-336 337 0
-336 339 0
-336 -338 0
337 -718 -719 724 0
-337 718 0
-337 719 0
-337 -724 0
338 525 527 723 0
-338 -525 0
-338 -723 0
-338 -527 0
339 -340 820 0
339 -340 -819 0
339 -340 -812 0
-339 340 0
-339 812 819 -820 0
340 -824 828 0
340 -827 829 0
340 -824 -827 0
340 828 829 0
-340 824 -829 0
-340 827 -828 0
341 -342 -343 -345 -346 0
-341 346 0
-341 342 0
-341 345 0
-341 343 0
342 -714 -717 848 0
342 -714 -716 -717 0
-342 714 0
-342 717 0
-342 716 -848 0
343 344 -851 0
343 344 842 0
-343 -344 0
-343 -842 851 0
344 821 830 0
-344 -821 0
-344 -830 0
345 -829 -849 850 -854 0
-345 854 0
-345 829 0
-345 849 0
-345 -850 0
346 -727 -731 -791 798 0
-346 791 0
-346 -798 0
-346 727 0
-346 731 0
347 -348 350 800 884 0
347 -348 350 -800 -884 0
-347 -350 0
-347 -800 884 0
-347 348 0
-347 800 -884 0
348 349 810 0
348 349 -809 0
348 349 811 0
-348 -349 0
-348 809 -810 -811 0
-307 349 715 0
-349 -715 0
307 -349 0
350 812 821 0
350 -812 813 0
-350 -812 -813 0
-350 812 -821 0
351 352 848 0
351 352 -847 0
351 352 846 0
-351 -352 0
-351 -846 847 -848 0
352 -802 -850 0
352 802 850 0
-352 802 -850 0
-352 -802 850 0
353 354 825 0
353 354 -824 0
353 354 826 0
-353 -354 0
-353 824 -825 -826 0
354 812 -820 823 0
354 812 819 -820 0
-354 -812 0
-354 820 0
-354 -819 -823 0
355 -356 -363 -366 -369 0
-355 369 0
-355 356 0
-355 366 0
-355 363 0
-56 356 -357 361 0
300 356 -357 361 0
-356 357 0
-356 -361 0
56 -300 -356 0
-300 357 -358 0
357 -358 -863 0
-357 358 0
300 -357 863 0
358 359 360 713 878 0
358 359 360 -713 -878 0
-358 -359 0
-358 -713 878 0
-358 -360 0
-358 713 -878 0
359 -525 -724 0
-359 525 0
-359 724 0
360 -716 848 0
-360 716 0
-360 -848 0
361 -362 -820 -821 822 0
-361 362 0
-361 820 0
-361 821 0
-361 -822 0
362 -812 -819 0
-362 812 0
-362 819 0
363 364 -365 566 829 0
363 364 -365 -566 -829 0
-363 -364 0
-363 566 -829 0
-363 365 0
-363 -566 829 0
364 786 799 0
-364 -786 0
-364 -799 0
365 -720 738 0
-365 720 0
-365 -738 0
366 367 368 614 877 0
366 367 368 -614 -877 0
-366 -367 0
-366 -614 877 0
-366 -368 0
-366 614 -877 0
367 634 -882 0
-367 -634 0
-367 882 0
368 -794 879 0
-368 794 0
-368 -879 0
369 -370 -371 788 863 0
369 -370 -371 -788 -863 0
-369 371 0
-369 -788 863 0
-369 370 0
-369 788 -863 0
370 634 879 0
370 -794 -882 0
370 634 -794 0
370 879 -882 0
-370 -634 882 0
-370 794 -879 0
371 -372 816 0
371 -372 -851 -866 0
-371 372 0
-371 -816 851 0
-371 -816 866 0
372 816 829 0
372 -842 -863 0
372 816 -863 0
372 829 -842 0
-372 -816 842 0
-372 -829 863 0
307 373 714 0
205 -307 373 583 0
307 -373 -714 0
-205 -307 -373 0
-307 -373 -583 0
307 374 716 0
-307 374 375 379 0
-307 -374 -375 0
307 -374 -716 0
-307 -374 -379 0
375 -377 -797 0
-207 375 -376 -797 0
-375 797 0
207 -375 377 0
-375 376 377 0
376 707 708 0
-376 -707 0
-376 -708 0
377 -378 536 0
-207 377 -378 707 0
-377 378 0
207 -377 -536 0
-377 -536 -707 0
-207 378 538 0
378 534 538 0
-378 -538 0
207 -378 -534 0
-208 379 -585 0
184 379 380 -585 0
-379 585 0
-184 208 -379 0
208 -379 -380 0
-27 -207 380 0
-207 380 707 0
207 -380 0
27 -380 -707 0
-259 381 -880 0
259 381 880 0
-259 -381 880 0
259 -381 -880 0
337 382 -383 0
-298 382 -383 0
-215 382 -383 0
-382 383 0
215 298 -337 -382 0
383 -402 -407 0
-228 383 -384 -407 0
-383 407 0
228 -383 402 0
-383 384 402 0
384 -385 -392 397 -399 0
-384 399 0
-384 385 0
-384 392 0
-384 -397 0
385 -386 -391 0
385 -386 390 0
-385 386 0
-385 -390 391 0
386 387 -746 0
386 387 388 -389 0
-386 -387 0
-386 389 746 0
-386 -388 746 0
387 719 720 0
-387 -719 0
-387 -720 0
56 388 -747 0
56 -253 388 0
-56 -388 0
253 -388 747 0
-56 -241 389 0
241 389 748 0
241 -389 -748 0
56 -241 -389 0
241 390 745 0
-248 390 745 0
-390 -745 0
-241 248 -390 0
-237 252 391 744 0
241 252 391 744 0
-391 -744 0
-252 -391 0
237 -241 -391 0
392 393 394 0
392 393 -527 0
-392 -393 0
-392 -394 527 0
393 717 -718 0
-393 -717 0
-393 718 0
394 395 715 -716 0
394 395 -396 -715 0
-394 -395 0
-394 396 -715 0
-394 715 716 0
205 395 583 0
-395 -583 0
-205 -395 0
396 634 -713 714 0
-396 -634 0
-396 713 0
-396 -714 0
397 398 749 0
-397 -749 0
-397 -398 0
-308 398 527 0
-398 -527 0
308 -398 0
-204 399 -400 401 -525 0
-399 400 0
-399 -401 0
-399 525 0
204 -399 0
387 400 -717 -718 0
387 400 718 -719 0
-387 -400 0
-400 717 -718 0
-400 718 719 0
401 718 -727 0
-401 -718 0
-401 727 0
402 403 -406 525 0
402 -403 -404 525 0
-402 -525 0
-402 -403 404 0
-402 403 406 0
204 -210 -212 403 0
212 -403 0
210 -403 0
-204 -403 0
404 405 -753 0
214 216 404 -753 0
-404 753 0
-214 -404 -405 0
-216 -404 -405 0
261 -391 405 755 0
261 405 746 755 0
-261 -405 0
-405 -755 0
391 -405 -746 0
204 406 753 -756 0
-204 406 753 756 0
-406 -753 0
-204 -406 -756 0
204 -406 756 0
-233 407 408 -461 0
407 408 -459 -461 0
-407 461 0
-407 -408 0
233 -407 459 0
408 435 -527 0
408 -409 435 0
408 -434 435 0
-408 -435 0
-408 409 434 527 0
409 -410 -728 0
409 433 -728 0
205 409 -728 0
-409 728 0
-205 -409 410 -433 0
263 410 411 -432 0
263 410 -416 -432 0
-263 -410 0
-410 432 0
-410 -411 416 0
411 -528 -692 0
411 -412 528 0
-411 412 528 0
-411 -528 692 0
412 -674 -705 0
412 -413 705 0
-412 674 -705 0
-412 413 705 0
413 -651 -706 0
413 -414 706 0
-413 651 -706 0
-413 414 706 0
414 -626 -707 0
414 -415 707 0
-414 626 -707 0
-414 415 707 0
415 -600 -708 0
415 -561 708 0
-415 561 708 0
-415 600 -708 0
-191 416 -528 0
416 -417 528 0
-416 417 528 0
191 -416 -528 0
-39 417 -705 0
417 -424 705 0
417 -418 705 0
39 -417 -705 0
-417 418 424 705 0
418 423 534 -706 0
418 -419 423 -706 0
-418 706 0
-418 -423 0
-418 419 -534 0
-52 419 420 0
-160 419 420 665 0
-419 -420 0
52 -419 -665 0
52 160 -419 0
420 -421 -663 0
-420 663 0
-420 421 0
-41 421 422 0
421 422 665 0
-421 -422 0
41 -421 -665 0
48 52 422 0
-48 -422 0
-52 -422 0
147 421 423 0
147 423 534 0
-147 -423 0
-421 -423 -534 0
424 -425 706 0
424 429 -431 706 0
-424 -706 0
-424 425 431 0
-424 425 -429 0
425 426 565 707 0
425 426 707 -708 0
-425 -426 0
-425 -707 0
-425 -565 708 0
426 427 -538 -708 0
101 426 427 -708 0
-426 708 0
-426 -427 0
-101 -426 538 0
-50 -99 427 -428 0
-99 -101 427 -428 0
-427 428 0
99 -427 0
50 101 -427 0
50 428 617 0
428 -538 616 617 0
-428 -617 0
-50 -428 538 0
-50 -428 -616 0
51 429 -536 0
429 430 -536 -640 0
-429 536 0
-51 -429 640 0
-51 -429 -430 0
42 430 -642 0
-430 642 0
-42 -430 0
-114 431 -707 0
430 431 -536 -707 0
-431 707 0
114 -430 -431 0
114 -431 536 0
-214 432 730 0
432 722 730 0
-432 -730 0
214 -432 -722 0
-210 433 -729 0
-433 729 0
210 -433 0
-433 434 728 -732 0
-205 434 728 732 0
205 434 728 -732 0
-434 -728 0
205 -434 732 0
-205 433 -434 -732 0
-217 435 436 443 -449 0
-435 449 0
-435 -443 0
217 -435 0
-435 -436 0
416 436 437 0
-416 -436 0
-436 -437 0
199 437 -528 0
437 -438 528 0
-199 -437 -528 0
-437 438 528 0
53 438 -705 0
438 -439 705 0
-53 -438 -705 0
-438 439 705 0
164 439 -706 0
439 440 442 706 0
-164 -439 -706 0
-439 -442 706 0
-439 -440 706 0
440 -441 707 -708 0
440 564 707 708 0
-440 -707 0
-440 -564 708 0
-440 441 -708 0
-49 441 599 0
-441 -599 0
49 -441 0
-170 442 -707 0
-442 707 0
170 -442 0
411 443 444 0
-411 -443 0
-443 -444 0
196 444 -528 0
196 444 -445 0
-196 -444 0
-444 445 528 0
-57 445 -705 0
445 -446 705 0
-445 446 705 0
57 -445 -705 0
-154 446 -706 0
446 -447 706 0
-446 447 706 0
154 -446 -706 0
-128 447 -707 0
447 -448 707 0
-447 448 707 0
128 -447 -707 0
-56 448 -708 0
448 566 708 0
56 -448 -708 0
-448 -566 708 0
-56 449 -455 0
-411 449 -455 0
449 -450 -455 0
-449 455 0
56 411 -449 450 0
450 451 528 0
-255 450 451 693 0
-450 -451 0
255 -450 -528 0
-450 -528 -693 0
451 -452 528 705 0
58 451 528 -705 0
-451 -528 0
-58 -451 -705 0
-451 452 705 0
452 453 706 0
160 452 453 0
-452 -453 0
-160 -452 -706 0
453 -454 576 708 0
-99 453 -454 -708 0
-453 454 0
99 -453 -708 0
-453 -576 708 0
454 706 707 0
-454 -706 0
-454 -707 0
205 394 455 -456 -458 0
-205 -455 0
-455 458 0
-455 456 0
-394 -455 0
393 456 457 0
-393 -456 0
-456 -457 0
308 457 710 0
-457 -710 0
-308 -457 0
387 -400 401 458 -527 0
400 -458 0
-401 -458 0
-458 527 0
-387 -458 0
-216 459 -718 0
337 459 -718 0
216 337 459 460 0
-216 -459 718 0
216 -337 -459 0
-459 -460 718 0
460 527 723 0
-460 -527 0
-460 -723 0
-226 436 461 -465 0
436 461 -462 -465 0
-461 465 0
-436 -461 0
226 -461 462 0
-207 462 463 -718 0
-10 462 463 -718 0
-462 718 0
-462 -463 0
10 207 -462 0
-207 463 -464 707 0
-11 -207 463 -707 0
207 -463 0
11 -463 -707 0
-463 464 707 0
-13 464 708 0
12 464 -708 0
-12 -464 -708 0
13 -464 708 0
465 -466 -515 517 -518 0
-465 518 0
-465 466 0
-465 515 0
-465 -517 0
277 466 -468 -513 0
466 -467 -468 -513 0
-466 513 0
-466 468 0
-277 -466 467 0
279 467 768 0
467 760 768 0
-467 -768 0
-279 -467 -760 0
-391 468 -469 -510 0
468 -469 509 -510 0
-468 510 0
-468 469 0
391 -468 -509 0
262 -386 469 -471 0
-386 469 470 -471 0
-469 471 0
386 -469 0
-262 -469 -470 0
205 470 -548 0
-470 548 0
-205 -470 0
444 471 -472 -769 0
444 471 -472 508 0
-471 472 0
-444 -471 0
-471 -508 769 0
-411 472 473 474 -479 0
-472 479 0
-472 -474 0
411 -472 0
-472 -473 0
306 -397 473 0
306 473 763 0
-306 -473 0
397 -473 -763 0
308 474 -475 528 0
308 474 -528 701 0
-308 -474 0
-474 475 528 0
-474 -528 -701 0
475 684 -705 0
475 -476 705 0
-475 -684 -705 0
-475 476 705 0
476 668 -706 0
476 -477 706 0
-476 -668 -706 0
-476 477 706 0
477 645 -707 0
477 -478 707 0
-477 -645 -707 0
-477 478 707 0
478 588 708 0
478 620 -708 0
-478 -620 -708 0
-478 -588 708 0
-392 479 -480 503 -504 0
-479 504 0
392 -479 0
-479 480 0
-479 -503 0
394 457 480 -481 -485 0
-394 -480 0
-480 485 0
-480 481 0
-457 -480 0
203 -226 481 483 0
203 481 -482 483 0
-203 -481 0
-481 -483 0
226 -481 482 0
337 482 -718 0
482 -718 722 0
337 482 -722 -723 0
-482 718 722 0
-337 -482 -722 0
-482 718 723 0
483 484 722 0
483 484 723 0
-483 -484 0
-483 -722 -723 0
205 484 721 0
14 205 484 560 0
-205 -484 0
-14 -484 -721 0
-484 -560 -721 0
30 485 -486 -497 0
-205 485 -486 -497 0
-485 497 0
-485 486 0
-30 205 -485 0
486 -487 -489 -490 -491 0
-486 491 0
-486 487 0
-486 490 0
-486 489 0
387 487 -488 -522 -526 0
-487 488 0
-487 522 0
-487 526 0
-387 -487 0
488 709 -713 -717 -718 0
-488 -709 0
-488 718 0
-488 717 0
-488 713 0
489 -743 -761 762 -766 0
-489 766 0
-489 743 0
-489 761 0
-489 -762 0
490 -719 -720 -737 739 0
-490 737 0
-490 -739 0
-490 719 0
-490 720 0
393 491 492 -493 -496 0
-393 -491 0
-491 496 0
-491 493 0
-491 -492 0
492 718 719 0
-492 -718 0
-492 -719 0
493 494 495 524 -762 0
493 494 495 -524 762 0
-493 -494 0
-493 524 762 0
-493 -495 0
-493 -524 -762 0
494 -772 780 0
-494 772 0
-494 -780 0
495 -526 -739 0
-495 526 0
-495 739 0
496 -634 -720 738 0
496 716 -720 738 0
-496 720 0
-496 -738 0
-496 634 -716 0
-211 497 -498 501 502 0
-497 498 0
-497 -502 0
211 -497 0
-497 -501 0
498 -499 -763 0
498 -499 525 749 0
-498 499 0
-498 -749 763 0
-498 -525 763 0
499 -500 -740 0
499 -500 527 710 0
-499 500 0
-499 -710 740 0
-499 -527 740 0
500 -778 779 -783 -788 0
-500 788 0
-500 778 0
-500 783 0
-500 -779 0
-56 501 -760 0
501 760 771 0
-501 760 -771 0
56 -501 -760 0
56 334 502 788 0
-502 -788 0
-334 -502 0
-56 -502 0
349 373 -396 503 0
-349 373 503 -716 0
-373 -503 0
349 396 -503 0
-349 -503 716 0
389 -456 504 505 -506 0
456 -504 0
-504 -505 0
-389 -504 0
-504 506 0
306 505 791 0
306 505 525 749 0
-306 -505 0
-505 -749 -791 0
-505 -525 -791 0
-306 506 507 0
506 507 -772 -780 0
-506 -507 0
306 -506 772 0
306 -506 780 0
398 507 740 0
-507 -740 0
-398 -507 0
56 246 508 0
56 508 -770 0
-56 -508 0
-246 -508 770 0
-390 509 525 0
-509 -525 0
390 -509 0
-444 510 -511 0
-411 510 -511 -746 0
-510 511 0
444 -510 746 0
411 444 -510 0
511 512 -769 0
-389 508 511 512 0
-511 -512 0
389 -511 769 0
-508 -511 769 0
263 -470 512 0
-263 -512 0
470 -512 0
235 513 514 0
-277 -509 513 0
235 -277 513 0
-509 513 514 0
-235 509 -513 0
277 -513 -514 0
279 514 787 0
514 786 787 0
-514 -787 0
-279 -514 -786 0
387 515 516 -769 0
387 -501 515 516 0
-515 -516 0
-387 -515 0
501 -515 769 0
235 -467 516 0
-235 -516 0
467 -516 0
-391 517 -527 0
-391 -437 517 0
391 -517 0
437 -517 527 0
307 -385 518 0
-385 470 518 0
260 -385 518 0
385 -518 0
-260 -307 -470 -518 0
519 520 521 0
-213 519 520 0
-519 -520 0
213 -519 -521 0
298 -338 520 718 0
-215 298 520 718 0
-520 -718 0
-298 -520 0
215 338 -520 0
259 -277 521 794 0
259 521 788 794 0
-259 -521 0
-521 -794 0
277 -521 -788 0
1 2 0
-1 -2 0
887 0

